76
0 34 33 9 58 22 64 7 18 19 
61 28 3 39 13 55 12 52 73 14 
11 17 25 10 47 67 30 32 63 75 
74 65 37 27 69 1 44 23 70 6 
50 5 72 29 31 57 53 59 51 48 
16 68 40 26 24 62 71 45 43 56 
49 38 36 54 35 41 20 21 4 46 
8 60 2 15 66 42 
